c b=4,c=119
p cnf 15 74
2 3 4 -8 0
1 3 4 -9 0
1 2 4 -10 0
2 3 4 -12 0
1 3 4 -13 0
1 2 4 -14 0
2 3 -4 8 0
1 2 -4 9 0
1 3 -4 10 0
1 -4 12 0
1 2 -4 13 0
1 2 3 -4 14 0
1 2 3 -7 0
1 2 3 -11 0
1 2 3 -15 0
1 -3 4 8 0
-3 4 11 0
4 -15 0
1 -3 -4 -8 0
1 -4 -11 0
-3 -4 15 0
1 2 -3 7 0
1 2 -3 9 0
1 -3 -10 0
1 -3 12 0
1 2 -3 13 0
1 2 -3 -14 0
1 2 -6 0
1 -2 4 8 0
-2 4 11 0
1 -2 -4 -8 0
-2 -4 15 0
-2 3 7 0
1 -2 3 10 0
-2 3 -14 0
-2 -3 -7 0
-2 -3 14 0
1 -2 6 0
1 -2 -9 0
1 -2 12 0
1 -2 -13 0
1 -5 0
-1 4 -8 0
-1 2 4 9 0
-1 4 11 0
-1 -4 8 0
-1 2 -4 -9 0
2 -4 -11 0
-1 -4 15 0
-1 3 7 0
-1 2 3 10 0
-1 3 -14 0
-1 -3 -7 0
2 -3 -10 0
-1 -3 14 0
-1 2 6 0
-1 2 -12 0
-1 2 -13 0
-2 4 -9 0
-1 3 4 10 0
-1 -2 -4 9 0
-1 -2 3 -4 -10 0
3 -4 -11 0
-1 3 -12 0
-1 -2 3 13 0
-3 4 -10 0
-1 4 -12 0
-1 -2 4 13 0
-1 -2 -3 -4 10 0
-2 -3 -4 12 0
-1 -3 -4 -13 0
-1 -2 -3 11 0
-1 -2 -6 0
-1 5 0
